N = 32;
MinK = 5;
Capacity = 100;

X = array1d(0..32, [42, 77, 28, 77, 32, 32, 42, 8, 7, 82, 48, 53, 39, 7, 67, 54, 72, 73, 59, 58, 23, 68, 47, 52, 32, 39, 17, 38, 58, 82, 42, 68, 7]);
Y = array1d(0..32, [68, 97, 64, 39, 33, 8, 92, 3, 14, 17, 13, 82, 27, 24, 98, 52, 43, 3, 77, 97, 43, 98, 62, 72, 88, 7, 8, 7, 74, 67, 7, 82, 48]);

Demands = [5, 23, 14, 13, 8, 18, 19, 10, 18, 20, 5, 9, 23, 9, 18, 10, 24, 13, 14, 8, 10, 19, 14, 13, 14, 2, 23, 15, 8, 20, 24, 3];
